p edge 64 512
e 1 52
e 1 4
e 1 5
e 1 2
e 1 42
e 1 26
e 1 38
e 1 28
e 1 20
e 1 39
e 1 40
e 1 35
e 1 13
e 1 62
e 1 64
e 1 11
e 1 50
e 1 44
e 1 12
e 1 10
e 1 53
e 1 41
e 1 48
e 2 14
e 2 20
e 2 56
e 2 23
e 2 45
e 2 51
e 2 7
e 2 64
e 2 50
e 2 22
e 2 26
e 2 55
e 2 16
e 2 54
e 2 63
e 3 46
e 3 61
e 3 57
e 3 64
e 3 43
e 3 35
e 3 28
e 3 47
e 3 7
e 3 24
e 3 17
e 3 19
e 3 30
e 3 23
e 3 22
e 3 62
e 4 44
e 4 10
e 4 39
e 4 11
e 4 55
e 4 31
e 4 8
e 4 12
e 4 48
e 4 46
e 4 54
e 4 32
e 4 25
e 5 21
e 5 27
e 5 43
e 5 8
e 5 58
e 5 31
e 5 48
e 5 30
e 5 55
e 5 33
e 5 7
e 6 14
e 6 24
e 6 60
e 6 40
e 6 42
e 6 57
e 6 10
e 6 31
e 6 61
e 6 46
e 6 55
e 6 13
e 6 9
e 6 37
e 6 12
e 6 62
e 7 15
e 7 10
e 7 34
e 7 12
e 7 57
e 7 29
e 7 24
e 7 46
e 7 33
e 7 16
e 7 19
e 7 20
e 7 39
e 7 41
e 7 26
e 7 45
e 8 15
e 8 63
e 8 36
e 8 60
e 8 21
e 8 29
e 8 64
e 8 54
e 8 48
e 8 53
e 8 16
e 8 22
e 8 32
e 8 56
e 9 34
e 9 54
e 9 44
e 9 14
e 9 19
e 9 42
e 9 21
e 9 18
e 9 16
e 9 63
e 9 35
e 10 50
e 10 45
e 10 23
e 10 14
e 10 47
e 10 35
e 10 30
e 10 33
e 10 55
e 10 12
e 10 49
e 10 18
e 10 27
e 11 28
e 11 30
e 11 37
e 11 26
e 11 39
e 11 57
e 11 15
e 11 60
e 11 48
e 11 35
e 11 16
e 11 53
e 11 45
e 11 59
e 11 41
e 12 48
e 12 49
e 12 30
e 12 19
e 12 47
e 12 27
e 12 51
e 12 54
e 12 60
e 13 34
e 13 41
e 13 57
e 13 54
e 13 37
e 13 33
e 13 46
e 13 53
e 13 62
e 13 17
e 13 64
e 13 55
e 13 28
e 13 44
e 13 59
e 13 16
e 13 42
e 14 30
e 14 38
e 14 35
e 14 55
e 14 59
e 14 52
e 14 16
e 14 19
e 14 31
e 14 63
e 14 44
e 14 62
e 14 57
e 14 58
e 15 38
e 15 21
e 15 45
e 15 37
e 15 27
e 15 35
e 15 41
e 15 61
e 15 49
e 15 32
e 16 53
e 16 63
e 16 27
e 16 31
e 16 34
e 16 36
e 16 56
e 16 38
e 16 47
e 16 32
e 16 18
e 16 20
e 16 41
e 16 50
e 16 52
e 17 30
e 17 20
e 17 59
e 17 27
e 17 19
e 17 51
e 18 60
e 18 55
e 18 26
e 18 64
e 18 29
e 18 43
e 18 51
e 18 20
e 18 50
e 18 40
e 18 46
e 18 24
e 18 45
e 18 54
e 18 44
e 18 35
e 19 41
e 19 30
e 19 21
e 19 61
e 19 26
e 19 51
e 19 37
e 19 36
e 19 45
e 19 33
e 19 58
e 20 30
e 20 59
e 20 40
e 20 62
e 20 38
e 20 61
e 20 36
e 20 57
e 20 49
e 20 56
e 20 26
e 20 54
e 20 32
e 21 47
e 21 39
e 21 63
e 21 53
e 21 34
e 21 57
e 21 62
e 21 37
e 21 24
e 22 48
e 22 46
e 22 23
e 22 53
e 22 26
e 22 51
e 22 45
e 22 24
e 22 61
e 22 50
e 22 35
e 22 62
e 22 60
e 22 41
e 22 47
e 22 64
e 23 36
e 23 41
e 23 63
e 23 39
e 23 53
e 23 59
e 23 62
e 23 64
e 23 24
e 23 47
e 23 37
e 24 25
e 24 53
e 24 49
e 24 58
e 24 51
e 24 62
e 24 27
e 24 55
e 24 33
e 24 37
e 24 61
e 25 64
e 25 26
e 25 55
e 25 34
e 25 44
e 25 32
e 25 35
e 25 57
e 25 50
e 25 42
e 25 60
e 26 37
e 26 60
e 26 58
e 26 43
e 26 34
e 26 52
e 26 29
e 27 32
e 27 54
e 27 33
e 27 42
e 27 60
e 27 61
e 27 62
e 27 64
e 27 40
e 27 58
e 28 50
e 28 60
e 28 63
e 28 43
e 28 55
e 28 41
e 28 62
e 28 48
e 29 49
e 29 46
e 29 64
e 29 30
e 29 38
e 29 58
e 29 55
e 29 57
e 29 35
e 30 48
e 30 35
e 30 37
e 30 49
e 30 56
e 30 34
e 30 59
e 31 62
e 31 47
e 31 50
e 31 57
e 31 56
e 31 38
e 31 42
e 31 41
e 31 37
e 32 35
e 32 60
e 32 36
e 32 55
e 32 41
e 32 38
e 32 48
e 32 61
e 32 45
e 33 52
e 33 42
e 33 49
e 33 44
e 33 34
e 33 58
e 34 60
e 34 47
e 34 62
e 34 58
e 34 43
e 34 53
e 35 49
e 35 47
e 35 36
e 35 54
e 35 62
e 35 50
e 35 39
e 35 44
e 35 61
e 35 42
e 36 59
e 36 46
e 36 52
e 36 39
e 36 37
e 36 41
e 37 44
e 37 56
e 37 49
e 37 48
e 37 46
e 37 39
e 37 63
e 37 55
e 37 45
e 37 43
e 37 50
e 38 59
e 38 39
e 38 55
e 38 46
e 38 50
e 38 49
e 38 53
e 39 62
e 39 52
e 39 55
e 39 49
e 39 59
e 39 54
e 39 53
e 40 46
e 40 49
e 40 63
e 40 45
e 40 57
e 40 52
e 40 43
e 40 51
e 41 47
e 41 56
e 41 52
e 41 44
e 41 49
e 41 48
e 41 63
e 41 54
e 42 50
e 42 64
e 43 63
e 43 51
e 43 54
e 44 58
e 44 54
e 44 61
e 44 62
e 44 51
e 44 63
e 44 60
e 44 52
e 45 48
e 45 62
e 45 61
e 46 52
e 46 63
e 46 49
e 47 64
e 47 52
e 47 49
e 48 53
e 48 61
e 48 52
e 48 55
e 48 57
e 49 62
e 49 56
e 49 63
e 49 57
e 51 60
e 51 64
e 51 58
e 52 63
e 52 58
e 53 57
e 53 55
e 53 64
e 54 57
e 55 59
e 56 64
e 56 63
e 57 61
e 58 59
e 59 60
e 59 62
e 59 63
e 60 63
e 61 64
e 61 63
e 63 64
